\ENCODING=ISO-8859-1
\Problem name: 

Minimize
 obj: w0 + w1 + w2 + w3 + w4 + w5 + w6 + w7 + w8 + w9 + w10 + w11
Subject To
 n0#0:          x0,0 + x0,1 + x0,2 + x0,3 + x0,4 + x0,5 + x0,6 + x0,7 + x0,8
                + x0,9 + x0,10 + x0,11  = 1
 n1#1:          x1,0 + x1,1 + x1,2 + x1,3 + x1,4 + x1,5 + x1,6 + x1,7 + x1,8
                + x1,9 + x1,10 + x1,11  = 1
 n2#2:          x2,0 + x2,1 + x2,2 + x2,3 + x2,4 + x2,5 + x2,6 + x2,7 + x2,8
                + x2,9 + x2,10 + x2,11  = 1
 n3#3:          x3,0 + x3,1 + x3,2 + x3,3 + x3,4 + x3,5 + x3,6 + x3,7 + x3,8
                + x3,9 + x3,10 + x3,11  = 1
 n4#4:          x4,0 + x4,1 + x4,2 + x4,3 + x4,4 + x4,5 + x4,6 + x4,7 + x4,8
                + x4,9 + x4,10 + x4,11  = 1
 n5#5:          x5,0 + x5,1 + x5,2 + x5,3 + x5,4 + x5,5 + x5,6 + x5,7 + x5,8
                + x5,9 + x5,10 + x5,11  = 1
 n6#6:          x6,0 + x6,1 + x6,2 + x6,3 + x6,4 + x6,5 + x6,6 + x6,7 + x6,8
                + x6,9 + x6,10 + x6,11  = 1
 n7#7:          x7,0 + x7,1 + x7,2 + x7,3 + x7,4 + x7,5 + x7,6 + x7,7 + x7,8
                + x7,9 + x7,10 + x7,11  = 1
 n8#8:          x8,0 + x8,1 + x8,2 + x8,3 + x8,4 + x8,5 + x8,6 + x8,7 + x8,8
                + x8,9 + x8,10 + x8,11  = 1
 n9#9:          x9,0 + x9,1 + x9,2 + x9,3 + x9,4 + x9,5 + x9,6 + x9,7 + x9,8
                + x9,9 + x9,10 + x9,11  = 1
 n10#10:        x10,0 + x10,1 + x10,2 + x10,3 + x10,4 + x10,5 + x10,6 + x10,7
                + x10,8 + x10,9 + x10,10 + x10,11  = 1
 n11#11:        x11,0 + x11,1 + x11,2 + x11,3 + x11,4 + x11,5 + x11,6 + x11,7
                + x11,8 + x11,9 + x11,10 + x11,11  = 1
 _e0,2_0#12:    x0,0 + x2,0 - w0 <= 0
 _e0,2_1#13:    x0,1 + x2,1 - w1 <= 0
 _e0,2_2#14:    x0,2 + x2,2 - w2 <= 0
 _e0,2_3#15:    x0,3 + x2,3 - w3 <= 0
 _e0,2_4#16:    x0,4 + x2,4 - w4 <= 0
 _e0,2_5#17:    x0,5 + x2,5 - w5 <= 0
 _e0,2_6#18:    x0,6 + x2,6 - w6 <= 0
 _e0,2_7#19:    x0,7 + x2,7 - w7 <= 0
 _e0,2_8#20:    x0,8 + x2,8 - w8 <= 0
 _e0,2_9#21:    x0,9 + x2,9 - w9 <= 0
 _e0,2_10#22:   x0,10 + x2,10 - w10 <= 0
 _e0,2_11#23:   x0,11 + x2,11 - w11 <= 0
 _e0,6_0#24:    x0,0 + x6,0 - w0 <= 0
 _e0,6_1#25:    x0,1 + x6,1 - w1 <= 0
 _e0,6_2#26:    x0,2 + x6,2 - w2 <= 0
 _e0,6_3#27:    x0,3 + x6,3 - w3 <= 0
 _e0,6_4#28:    x0,4 + x6,4 - w4 <= 0
 _e0,6_5#29:    x0,5 + x6,5 - w5 <= 0
 _e0,6_6#30:    x0,6 + x6,6 - w6 <= 0
 _e0,6_7#31:    x0,7 + x6,7 - w7 <= 0
 _e0,6_8#32:    x0,8 + x6,8 - w8 <= 0
 _e0,6_9#33:    x0,9 + x6,9 - w9 <= 0
 _e0,6_10#34:   x0,10 + x6,10 - w10 <= 0
 _e0,6_11#35:   x0,11 + x6,11 - w11 <= 0
 _e0,9_0#36:    x0,0 + x9,0 - w0 <= 0
 _e0,9_1#37:    x0,1 + x9,1 - w1 <= 0
 _e0,9_2#38:    x0,2 + x9,2 - w2 <= 0
 _e0,9_3#39:    x0,3 + x9,3 - w3 <= 0
 _e0,9_4#40:    x0,4 + x9,4 - w4 <= 0
 _e0,9_5#41:    x0,5 + x9,5 - w5 <= 0
 _e0,9_6#42:    x0,6 + x9,6 - w6 <= 0
 _e0,9_7#43:    x0,7 + x9,7 - w7 <= 0
 _e0,9_8#44:    x0,8 + x9,8 - w8 <= 0
 _e0,9_9#45:    x0,9 + x9,9 - w9 <= 0
 _e0,9_10#46:   x0,10 + x9,10 - w10 <= 0
 _e0,9_11#47:   x0,11 + x9,11 - w11 <= 0
 _e0,10_0#48:   x0,0 + x10,0 - w0 <= 0
 _e0,10_1#49:   x0,1 + x10,1 - w1 <= 0
 _e0,10_2#50:   x0,2 + x10,2 - w2 <= 0
 _e0,10_3#51:   x0,3 + x10,3 - w3 <= 0
 _e0,10_4#52:   x0,4 + x10,4 - w4 <= 0
 _e0,10_5#53:   x0,5 + x10,5 - w5 <= 0
 _e0,10_6#54:   x0,6 + x10,6 - w6 <= 0
 _e0,10_7#55:   x0,7 + x10,7 - w7 <= 0
 _e0,10_8#56:   x0,8 + x10,8 - w8 <= 0
 _e0,10_9#57:   x0,9 + x10,9 - w9 <= 0
 _e0,10_10#58:  x0,10 + x10,10 - w10 <= 0
 _e0,10_11#59:  x0,11 + x10,11 - w11 <= 0
 _e1,2_0#60:    x1,0 + x2,0 - w0 <= 0
 _e1,2_1#61:    x1,1 + x2,1 - w1 <= 0
 _e1,2_2#62:    x1,2 + x2,2 - w2 <= 0
 _e1,2_3#63:    x1,3 + x2,3 - w3 <= 0
 _e1,2_4#64:    x1,4 + x2,4 - w4 <= 0
 _e1,2_5#65:    x1,5 + x2,5 - w5 <= 0
 _e1,2_6#66:    x1,6 + x2,6 - w6 <= 0
 _e1,2_7#67:    x1,7 + x2,7 - w7 <= 0
 _e1,2_8#68:    x1,8 + x2,8 - w8 <= 0
 _e1,2_9#69:    x1,9 + x2,9 - w9 <= 0
 _e1,2_10#70:   x1,10 + x2,10 - w10 <= 0
 _e1,2_11#71:   x1,11 + x2,11 - w11 <= 0
 _e1,4_0#72:    x1,0 + x4,0 - w0 <= 0
 _e1,4_1#73:    x1,1 + x4,1 - w1 <= 0
 _e1,4_2#74:    x1,2 + x4,2 - w2 <= 0
 _e1,4_3#75:    x1,3 + x4,3 - w3 <= 0
 _e1,4_4#76:    x1,4 + x4,4 - w4 <= 0
 _e1,4_5#77:    x1,5 + x4,5 - w5 <= 0
 _e1,4_6#78:    x1,6 + x4,6 - w6 <= 0
 _e1,4_7#79:    x1,7 + x4,7 - w7 <= 0
 _e1,4_8#80:    x1,8 + x4,8 - w8 <= 0
 _e1,4_9#81:    x1,9 + x4,9 - w9 <= 0
 _e1,4_10#82:   x1,10 + x4,10 - w10 <= 0
 _e1,4_11#83:   x1,11 + x4,11 - w11 <= 0
 _e1,5_0#84:    x1,0 + x5,0 - w0 <= 0
 _e1,5_1#85:    x1,1 + x5,1 - w1 <= 0
 _e1,5_2#86:    x1,2 + x5,2 - w2 <= 0
 _e1,5_3#87:    x1,3 + x5,3 - w3 <= 0
 _e1,5_4#88:    x1,4 + x5,4 - w4 <= 0
 _e1,5_5#89:    x1,5 + x5,5 - w5 <= 0
 _e1,5_6#90:    x1,6 + x5,6 - w6 <= 0
 _e1,5_7#91:    x1,7 + x5,7 - w7 <= 0
 _e1,5_8#92:    x1,8 + x5,8 - w8 <= 0
 _e1,5_9#93:    x1,9 + x5,9 - w9 <= 0
 _e1,5_10#94:   x1,10 + x5,10 - w10 <= 0
 _e1,5_11#95:   x1,11 + x5,11 - w11 <= 0
 _e1,7_0#96:    x1,0 + x7,0 - w0 <= 0
 _e1,7_1#97:    x1,1 + x7,1 - w1 <= 0
 _e1,7_2#98:    x1,2 + x7,2 - w2 <= 0
 _e1,7_3#99:    x1,3 + x7,3 - w3 <= 0
 _e1,7_4#100:   x1,4 + x7,4 - w4 <= 0
 _e1,7_5#101:   x1,5 + x7,5 - w5 <= 0
 _e1,7_6#102:   x1,6 + x7,6 - w6 <= 0
 _e1,7_7#103:   x1,7 + x7,7 - w7 <= 0
 _e1,7_8#104:   x1,8 + x7,8 - w8 <= 0
 _e1,7_9#105:   x1,9 + x7,9 - w9 <= 0
 _e1,7_10#106:  x1,10 + x7,10 - w10 <= 0
 _e1,7_11#107:  x1,11 + x7,11 - w11 <= 0
 _e1,8_0#108:   x1,0 + x8,0 - w0 <= 0
 _e1,8_1#109:   x1,1 + x8,1 - w1 <= 0
 _e1,8_2#110:   x1,2 + x8,2 - w2 <= 0
 _e1,8_3#111:   x1,3 + x8,3 - w3 <= 0
 _e1,8_4#112:   x1,4 + x8,4 - w4 <= 0
 _e1,8_5#113:   x1,5 + x8,5 - w5 <= 0
 _e1,8_6#114:   x1,6 + x8,6 - w6 <= 0
 _e1,8_7#115:   x1,7 + x8,7 - w7 <= 0
 _e1,8_8#116:   x1,8 + x8,8 - w8 <= 0
 _e1,8_9#117:   x1,9 + x8,9 - w9 <= 0
 _e1,8_10#118:  x1,10 + x8,10 - w10 <= 0
 _e1,8_11#119:  x1,11 + x8,11 - w11 <= 0
 _e1,11_0#120:  x1,0 + x11,0 - w0 <= 0
 _e1,11_1#121:  x1,1 + x11,1 - w1 <= 0
 _e1,11_2#122:  x1,2 + x11,2 - w2 <= 0
 _e1,11_3#123:  x1,3 + x11,3 - w3 <= 0
 _e1,11_4#124:  x1,4 + x11,4 - w4 <= 0
 _e1,11_5#125:  x1,5 + x11,5 - w5 <= 0
 _e1,11_6#126:  x1,6 + x11,6 - w6 <= 0
 _e1,11_7#127:  x1,7 + x11,7 - w7 <= 0
 _e1,11_8#128:  x1,8 + x11,8 - w8 <= 0
 _e1,11_9#129:  x1,9 + x11,9 - w9 <= 0
 _e1,11_10#130: x1,10 + x11,10 - w10 <= 0
 _e1,11_11#131: x1,11 + x11,11 - w11 <= 0
 _e2,3_0#132:   x2,0 + x3,0 - w0 <= 0
 _e2,3_1#133:   x2,1 + x3,1 - w1 <= 0
 _e2,3_2#134:   x2,2 + x3,2 - w2 <= 0
 _e2,3_3#135:   x2,3 + x3,3 - w3 <= 0
 _e2,3_4#136:   x2,4 + x3,4 - w4 <= 0
 _e2,3_5#137:   x2,5 + x3,5 - w5 <= 0
 _e2,3_6#138:   x2,6 + x3,6 - w6 <= 0
 _e2,3_7#139:   x2,7 + x3,7 - w7 <= 0
 _e2,3_8#140:   x2,8 + x3,8 - w8 <= 0
 _e2,3_9#141:   x2,9 + x3,9 - w9 <= 0
 _e2,3_10#142:  x2,10 + x3,10 - w10 <= 0
 _e2,3_11#143:  x2,11 + x3,11 - w11 <= 0
 _e2,4_0#144:   x2,0 + x4,0 - w0 <= 0
 _e2,4_1#145:   x2,1 + x4,1 - w1 <= 0
 _e2,4_2#146:   x2,2 + x4,2 - w2 <= 0
 _e2,4_3#147:   x2,3 + x4,3 - w3 <= 0
 _e2,4_4#148:   x2,4 + x4,4 - w4 <= 0
 _e2,4_5#149:   x2,5 + x4,5 - w5 <= 0
 _e2,4_6#150:   x2,6 + x4,6 - w6 <= 0
 _e2,4_7#151:   x2,7 + x4,7 - w7 <= 0
 _e2,4_8#152:   x2,8 + x4,8 - w8 <= 0
 _e2,4_9#153:   x2,9 + x4,9 - w9 <= 0
 _e2,4_10#154:  x2,10 + x4,10 - w10 <= 0
 _e2,4_11#155:  x2,11 + x4,11 - w11 <= 0
 _e2,5_0#156:   x2,0 + x5,0 - w0 <= 0
 _e2,5_1#157:   x2,1 + x5,1 - w1 <= 0
 _e2,5_2#158:   x2,2 + x5,2 - w2 <= 0
 _e2,5_3#159:   x2,3 + x5,3 - w3 <= 0
 _e2,5_4#160:   x2,4 + x5,4 - w4 <= 0
 _e2,5_5#161:   x2,5 + x5,5 - w5 <= 0
 _e2,5_6#162:   x2,6 + x5,6 - w6 <= 0
 _e2,5_7#163:   x2,7 + x5,7 - w7 <= 0
 _e2,5_8#164:   x2,8 + x5,8 - w8 <= 0
 _e2,5_9#165:   x2,9 + x5,9 - w9 <= 0
 _e2,5_10#166:  x2,10 + x5,10 - w10 <= 0
 _e2,5_11#167:  x2,11 + x5,11 - w11 <= 0
 _e2,7_0#168:   x2,0 + x7,0 - w0 <= 0
 _e2,7_1#169:   x2,1 + x7,1 - w1 <= 0
 _e2,7_2#170:   x2,2 + x7,2 - w2 <= 0
 _e2,7_3#171:   x2,3 + x7,3 - w3 <= 0
 _e2,7_4#172:   x2,4 + x7,4 - w4 <= 0
 _e2,7_5#173:   x2,5 + x7,5 - w5 <= 0
 _e2,7_6#174:   x2,6 + x7,6 - w6 <= 0
 _e2,7_7#175:   x2,7 + x7,7 - w7 <= 0
 _e2,7_8#176:   x2,8 + x7,8 - w8 <= 0
 _e2,7_9#177:   x2,9 + x7,9 - w9 <= 0
 _e2,7_10#178:  x2,10 + x7,10 - w10 <= 0
 _e2,7_11#179:  x2,11 + x7,11 - w11 <= 0
 _e2,8_0#180:   x2,0 + x8,0 - w0 <= 0
 _e2,8_1#181:   x2,1 + x8,1 - w1 <= 0
 _e2,8_2#182:   x2,2 + x8,2 - w2 <= 0
 _e2,8_3#183:   x2,3 + x8,3 - w3 <= 0
 _e2,8_4#184:   x2,4 + x8,4 - w4 <= 0
 _e2,8_5#185:   x2,5 + x8,5 - w5 <= 0
 _e2,8_6#186:   x2,6 + x8,6 - w6 <= 0
 _e2,8_7#187:   x2,7 + x8,7 - w7 <= 0
 _e2,8_8#188:   x2,8 + x8,8 - w8 <= 0
 _e2,8_9#189:   x2,9 + x8,9 - w9 <= 0
 _e2,8_10#190:  x2,10 + x8,10 - w10 <= 0
 _e2,8_11#191:  x2,11 + x8,11 - w11 <= 0
 _e3,4_0#192:   x3,0 + x4,0 - w0 <= 0
 _e3,4_1#193:   x3,1 + x4,1 - w1 <= 0
 _e3,4_2#194:   x3,2 + x4,2 - w2 <= 0
 _e3,4_3#195:   x3,3 + x4,3 - w3 <= 0
 _e3,4_4#196:   x3,4 + x4,4 - w4 <= 0
 _e3,4_5#197:   x3,5 + x4,5 - w5 <= 0
 _e3,4_6#198:   x3,6 + x4,6 - w6 <= 0
 _e3,4_7#199:   x3,7 + x4,7 - w7 <= 0
 _e3,4_8#200:   x3,8 + x4,8 - w8 <= 0
 _e3,4_9#201:   x3,9 + x4,9 - w9 <= 0
 _e3,4_10#202:  x3,10 + x4,10 - w10 <= 0
 _e3,4_11#203:  x3,11 + x4,11 - w11 <= 0
 _e3,5_0#204:   x3,0 + x5,0 - w0 <= 0
 _e3,5_1#205:   x3,1 + x5,1 - w1 <= 0
 _e3,5_2#206:   x3,2 + x5,2 - w2 <= 0
 _e3,5_3#207:   x3,3 + x5,3 - w3 <= 0
 _e3,5_4#208:   x3,4 + x5,4 - w4 <= 0
 _e3,5_5#209:   x3,5 + x5,5 - w5 <= 0
 _e3,5_6#210:   x3,6 + x5,6 - w6 <= 0
 _e3,5_7#211:   x3,7 + x5,7 - w7 <= 0
 _e3,5_8#212:   x3,8 + x5,8 - w8 <= 0
 _e3,5_9#213:   x3,9 + x5,9 - w9 <= 0
 _e3,5_10#214:  x3,10 + x5,10 - w10 <= 0
 _e3,5_11#215:  x3,11 + x5,11 - w11 <= 0
 _e3,6_0#216:   x3,0 + x6,0 - w0 <= 0
 _e3,6_1#217:   x3,1 + x6,1 - w1 <= 0
 _e3,6_2#218:   x3,2 + x6,2 - w2 <= 0
 _e3,6_3#219:   x3,3 + x6,3 - w3 <= 0
 _e3,6_4#220:   x3,4 + x6,4 - w4 <= 0
 _e3,6_5#221:   x3,5 + x6,5 - w5 <= 0
 _e3,6_6#222:   x3,6 + x6,6 - w6 <= 0
 _e3,6_7#223:   x3,7 + x6,7 - w7 <= 0
 _e3,6_8#224:   x3,8 + x6,8 - w8 <= 0
 _e3,6_9#225:   x3,9 + x6,9 - w9 <= 0
 _e3,6_10#226:  x3,10 + x6,10 - w10 <= 0
 _e3,6_11#227:  x3,11 + x6,11 - w11 <= 0
 _e3,11_0#228:  x3,0 + x11,0 - w0 <= 0
 _e3,11_1#229:  x3,1 + x11,1 - w1 <= 0
 _e3,11_2#230:  x3,2 + x11,2 - w2 <= 0
 _e3,11_3#231:  x3,3 + x11,3 - w3 <= 0
 _e3,11_4#232:  x3,4 + x11,4 - w4 <= 0
 _e3,11_5#233:  x3,5 + x11,5 - w5 <= 0
 _e3,11_6#234:  x3,6 + x11,6 - w6 <= 0
 _e3,11_7#235:  x3,7 + x11,7 - w7 <= 0
 _e3,11_8#236:  x3,8 + x11,8 - w8 <= 0
 _e3,11_9#237:  x3,9 + x11,9 - w9 <= 0
 _e3,11_10#238: x3,10 + x11,10 - w10 <= 0
 _e3,11_11#239: x3,11 + x11,11 - w11 <= 0
 _e4,5_0#240:   x4,0 + x5,0 - w0 <= 0
 _e4,5_1#241:   x4,1 + x5,1 - w1 <= 0
 _e4,5_2#242:   x4,2 + x5,2 - w2 <= 0
 _e4,5_3#243:   x4,3 + x5,3 - w3 <= 0
 _e4,5_4#244:   x4,4 + x5,4 - w4 <= 0
 _e4,5_5#245:   x4,5 + x5,5 - w5 <= 0
 _e4,5_6#246:   x4,6 + x5,6 - w6 <= 0
 _e4,5_7#247:   x4,7 + x5,7 - w7 <= 0
 _e4,5_8#248:   x4,8 + x5,8 - w8 <= 0
 _e4,5_9#249:   x4,9 + x5,9 - w9 <= 0
 _e4,5_10#250:  x4,10 + x5,10 - w10 <= 0
 _e4,5_11#251:  x4,11 + x5,11 - w11 <= 0
 _e4,6_0#252:   x4,0 + x6,0 - w0 <= 0
 _e4,6_1#253:   x4,1 + x6,1 - w1 <= 0
 _e4,6_2#254:   x4,2 + x6,2 - w2 <= 0
 _e4,6_3#255:   x4,3 + x6,3 - w3 <= 0
 _e4,6_4#256:   x4,4 + x6,4 - w4 <= 0
 _e4,6_5#257:   x4,5 + x6,5 - w5 <= 0
 _e4,6_6#258:   x4,6 + x6,6 - w6 <= 0
 _e4,6_7#259:   x4,7 + x6,7 - w7 <= 0
 _e4,6_8#260:   x4,8 + x6,8 - w8 <= 0
 _e4,6_9#261:   x4,9 + x6,9 - w9 <= 0
 _e4,6_10#262:  x4,10 + x6,10 - w10 <= 0
 _e4,6_11#263:  x4,11 + x6,11 - w11 <= 0
 _e4,7_0#264:   x4,0 + x7,0 - w0 <= 0
 _e4,7_1#265:   x4,1 + x7,1 - w1 <= 0
 _e4,7_2#266:   x4,2 + x7,2 - w2 <= 0
 _e4,7_3#267:   x4,3 + x7,3 - w3 <= 0
 _e4,7_4#268:   x4,4 + x7,4 - w4 <= 0
 _e4,7_5#269:   x4,5 + x7,5 - w5 <= 0
 _e4,7_6#270:   x4,6 + x7,6 - w6 <= 0
 _e4,7_7#271:   x4,7 + x7,7 - w7 <= 0
 _e4,7_8#272:   x4,8 + x7,8 - w8 <= 0
 _e4,7_9#273:   x4,9 + x7,9 - w9 <= 0
 _e4,7_10#274:  x4,10 + x7,10 - w10 <= 0
 _e4,7_11#275:  x4,11 + x7,11 - w11 <= 0
 _e4,9_0#276:   x4,0 + x9,0 - w0 <= 0
 _e4,9_1#277:   x4,1 + x9,1 - w1 <= 0
 _e4,9_2#278:   x4,2 + x9,2 - w2 <= 0
 _e4,9_3#279:   x4,3 + x9,3 - w3 <= 0
 _e4,9_4#280:   x4,4 + x9,4 - w4 <= 0
 _e4,9_5#281:   x4,5 + x9,5 - w5 <= 0
 _e4,9_6#282:   x4,6 + x9,6 - w6 <= 0
 _e4,9_7#283:   x4,7 + x9,7 - w7 <= 0
 _e4,9_8#284:   x4,8 + x9,8 - w8 <= 0
 _e4,9_9#285:   x4,9 + x9,9 - w9 <= 0
 _e4,9_10#286:  x4,10 + x9,10 - w10 <= 0
 _e4,9_11#287:  x4,11 + x9,11 - w11 <= 0
 _e4,10_0#288:  x4,0 + x10,0 - w0 <= 0
 _e4,10_1#289:  x4,1 + x10,1 - w1 <= 0
 _e4,10_2#290:  x4,2 + x10,2 - w2 <= 0
 _e4,10_3#291:  x4,3 + x10,3 - w3 <= 0
 _e4,10_4#292:  x4,4 + x10,4 - w4 <= 0
 _e4,10_5#293:  x4,5 + x10,5 - w5 <= 0
 _e4,10_6#294:  x4,6 + x10,6 - w6 <= 0
 _e4,10_7#295:  x4,7 + x10,7 - w7 <= 0
 _e4,10_8#296:  x4,8 + x10,8 - w8 <= 0
 _e4,10_9#297:  x4,9 + x10,9 - w9 <= 0
 _e4,10_10#298: x4,10 + x10,10 - w10 <= 0
 _e4,10_11#299: x4,11 + x10,11 - w11 <= 0
 _e5,7_0#300:   x5,0 + x7,0 - w0 <= 0
 _e5,7_1#301:   x5,1 + x7,1 - w1 <= 0
 _e5,7_2#302:   x5,2 + x7,2 - w2 <= 0
 _e5,7_3#303:   x5,3 + x7,3 - w3 <= 0
 _e5,7_4#304:   x5,4 + x7,4 - w4 <= 0
 _e5,7_5#305:   x5,5 + x7,5 - w5 <= 0
 _e5,7_6#306:   x5,6 + x7,6 - w6 <= 0
 _e5,7_7#307:   x5,7 + x7,7 - w7 <= 0
 _e5,7_8#308:   x5,8 + x7,8 - w8 <= 0
 _e5,7_9#309:   x5,9 + x7,9 - w9 <= 0
 _e5,7_10#310:  x5,10 + x7,10 - w10 <= 0
 _e5,7_11#311:  x5,11 + x7,11 - w11 <= 0
 _e5,10_0#312:  x5,0 + x10,0 - w0 <= 0
 _e5,10_1#313:  x5,1 + x10,1 - w1 <= 0
 _e5,10_2#314:  x5,2 + x10,2 - w2 <= 0
 _e5,10_3#315:  x5,3 + x10,3 - w3 <= 0
 _e5,10_4#316:  x5,4 + x10,4 - w4 <= 0
 _e5,10_5#317:  x5,5 + x10,5 - w5 <= 0
 _e5,10_6#318:  x5,6 + x10,6 - w6 <= 0
 _e5,10_7#319:  x5,7 + x10,7 - w7 <= 0
 _e5,10_8#320:  x5,8 + x10,8 - w8 <= 0
 _e5,10_9#321:  x5,9 + x10,9 - w9 <= 0
 _e5,10_10#322: x5,10 + x10,10 - w10 <= 0
 _e5,10_11#323: x5,11 + x10,11 - w11 <= 0
 _e7,8_0#324:   x7,0 + x8,0 - w0 <= 0
 _e7,8_1#325:   x7,1 + x8,1 - w1 <= 0
 _e7,8_2#326:   x7,2 + x8,2 - w2 <= 0
 _e7,8_3#327:   x7,3 + x8,3 - w3 <= 0
 _e7,8_4#328:   x7,4 + x8,4 - w4 <= 0
 _e7,8_5#329:   x7,5 + x8,5 - w5 <= 0
 _e7,8_6#330:   x7,6 + x8,6 - w6 <= 0
 _e7,8_7#331:   x7,7 + x8,7 - w7 <= 0
 _e7,8_8#332:   x7,8 + x8,8 - w8 <= 0
 _e7,8_9#333:   x7,9 + x8,9 - w9 <= 0
 _e7,8_10#334:  x7,10 + x8,10 - w10 <= 0
 _e7,8_11#335:  x7,11 + x8,11 - w11 <= 0
 _e7,11_0#336:  x7,0 + x11,0 - w0 <= 0
 _e7,11_1#337:  x7,1 + x11,1 - w1 <= 0
 _e7,11_2#338:  x7,2 + x11,2 - w2 <= 0
 _e7,11_3#339:  x7,3 + x11,3 - w3 <= 0
 _e7,11_4#340:  x7,4 + x11,4 - w4 <= 0
 _e7,11_5#341:  x7,5 + x11,5 - w5 <= 0
 _e7,11_6#342:  x7,6 + x11,6 - w6 <= 0
 _e7,11_7#343:  x7,7 + x11,7 - w7 <= 0
 _e7,11_8#344:  x7,8 + x11,8 - w8 <= 0
 _e7,11_9#345:  x7,9 + x11,9 - w9 <= 0
 _e7,11_10#346: x7,10 + x11,10 - w10 <= 0
 _e7,11_11#347: x7,11 + x11,11 - w11 <= 0
 _e8,9_0#348:   x8,0 + x9,0 - w0 <= 0
 _e8,9_1#349:   x8,1 + x9,1 - w1 <= 0
 _e8,9_2#350:   x8,2 + x9,2 - w2 <= 0
 _e8,9_3#351:   x8,3 + x9,3 - w3 <= 0
 _e8,9_4#352:   x8,4 + x9,4 - w4 <= 0
 _e8,9_5#353:   x8,5 + x9,5 - w5 <= 0
 _e8,9_6#354:   x8,6 + x9,6 - w6 <= 0
 _e8,9_7#355:   x8,7 + x9,7 - w7 <= 0
 _e8,9_8#356:   x8,8 + x9,8 - w8 <= 0
 _e8,9_9#357:   x8,9 + x9,9 - w9 <= 0
 _e8,9_10#358:  x8,10 + x9,10 - w10 <= 0
 _e8,9_11#359:  x8,11 + x9,11 - w11 <= 0
 _e8,10_0#360:  x8,0 + x10,0 - w0 <= 0
 _e8,10_1#361:  x8,1 + x10,1 - w1 <= 0
 _e8,10_2#362:  x8,2 + x10,2 - w2 <= 0
 _e8,10_3#363:  x8,3 + x10,3 - w3 <= 0
 _e8,10_4#364:  x8,4 + x10,4 - w4 <= 0
 _e8,10_5#365:  x8,5 + x10,5 - w5 <= 0
 _e8,10_6#366:  x8,6 + x10,6 - w6 <= 0
 _e8,10_7#367:  x8,7 + x10,7 - w7 <= 0
 _e8,10_8#368:  x8,8 + x10,8 - w8 <= 0
 _e8,10_9#369:  x8,9 + x10,9 - w9 <= 0
 _e8,10_10#370: x8,10 + x10,10 - w10 <= 0
 _e8,10_11#371: x8,11 + x10,11 - w11 <= 0
 _e9,10_0#372:  x9,0 + x10,0 - w0 <= 0
 _e9,10_1#373:  x9,1 + x10,1 - w1 <= 0
 _e9,10_2#374:  x9,2 + x10,2 - w2 <= 0
 _e9,10_3#375:  x9,3 + x10,3 - w3 <= 0
 _e9,10_4#376:  x9,4 + x10,4 - w4 <= 0
 _e9,10_5#377:  x9,5 + x10,5 - w5 <= 0
 _e9,10_6#378:  x9,6 + x10,6 - w6 <= 0
 _e9,10_7#379:  x9,7 + x10,7 - w7 <= 0
 _e9,10_8#380:  x9,8 + x10,8 - w8 <= 0
 _e9,10_9#381:  x9,9 + x10,9 - w9 <= 0
 _e9,10_10#382: x9,10 + x10,10 - w10 <= 0
 _e9,10_11#383: x9,11 + x10,11 - w11 <= 0
 _e9,11_0#384:  x9,0 + x11,0 - w0 <= 0
 _e9,11_1#385:  x9,1 + x11,1 - w1 <= 0
 _e9,11_2#386:  x9,2 + x11,2 - w2 <= 0
 _e9,11_3#387:  x9,3 + x11,3 - w3 <= 0
 _e9,11_4#388:  x9,4 + x11,4 - w4 <= 0
 _e9,11_5#389:  x9,5 + x11,5 - w5 <= 0
 _e9,11_6#390:  x9,6 + x11,6 - w6 <= 0
 _e9,11_7#391:  x9,7 + x11,7 - w7 <= 0
 _e9,11_8#392:  x9,8 + x11,8 - w8 <= 0
 _e9,11_9#393:  x9,9 + x11,9 - w9 <= 0
 _e9,11_10#394: x9,10 + x11,10 - w10 <= 0
 _e9,11_11#395: x9,11 + x11,11 - w11 <= 0
 s1_0#396:      x0,0 + x1,0 + x2,0 + x3,0 + x4,0 + x5,0 + x6,0 + x7,0 + x8,0
                + x9,0 + x10,0 + x11,0 - w0 >= 0
 s1_1#397:      x0,1 + x1,1 + x2,1 + x3,1 + x4,1 + x5,1 + x6,1 + x7,1 + x8,1
                + x9,1 + x10,1 + x11,1 - w1 >= 0
 s1_2#398:      x0,2 + x1,2 + x2,2 + x3,2 + x4,2 + x5,2 + x6,2 + x7,2 + x8,2
                + x9,2 + x10,2 + x11,2 - w2 >= 0
 s1_3#399:      x0,3 + x1,3 + x2,3 + x3,3 + x4,3 + x5,3 + x6,3 + x7,3 + x8,3
                + x9,3 + x10,3 + x11,3 - w3 >= 0
 s1_4#400:      x0,4 + x1,4 + x2,4 + x3,4 + x4,4 + x5,4 + x6,4 + x7,4 + x8,4
                + x9,4 + x10,4 + x11,4 - w4 >= 0
 s1_5#401:      x0,5 + x1,5 + x2,5 + x3,5 + x4,5 + x5,5 + x6,5 + x7,5 + x8,5
                + x9,5 + x10,5 + x11,5 - w5 >= 0
 s1_6#402:      x0,6 + x1,6 + x2,6 + x3,6 + x4,6 + x5,6 + x6,6 + x7,6 + x8,6
                + x9,6 + x10,6 + x11,6 - w6 >= 0
 s1_7#403:      x0,7 + x1,7 + x2,7 + x3,7 + x4,7 + x5,7 + x6,7 + x7,7 + x8,7
                + x9,7 + x10,7 + x11,7 - w7 >= 0
 s1_8#404:      x0,8 + x1,8 + x2,8 + x3,8 + x4,8 + x5,8 + x6,8 + x7,8 + x8,8
                + x9,8 + x10,8 + x11,8 - w8 >= 0
 s1_9#405:      x0,9 + x1,9 + x2,9 + x3,9 + x4,9 + x5,9 + x6,9 + x7,9 + x8,9
                + x9,9 + x10,9 + x11,9 - w9 >= 0
 s1_10#406:     x0,10 + x1,10 + x2,10 + x3,10 + x4,10 + x5,10 + x6,10 + x7,10
                + x8,10 + x9,10 + x10,10 + x11,10 - w10 >= 0
 s1_11#407:     x0,11 + x1,11 + x2,11 + x3,11 + x4,11 + x5,11 + x6,11 + x7,11
                + x8,11 + x9,11 + x10,11 + x11,11 - w11 >= 0
 s2_0#408:      w0 - w1 >= 0
 s2_1#409:      w1 - w2 >= 0
 s2_2#410:      w2 - w3 >= 0
 s2_3#411:      w3 - w4 >= 0
 s2_4#412:      w4 - w5 >= 0
 s2_5#413:      w5 - w6 >= 0
 s2_6#414:      w6 - w7 >= 0
 s2_7#415:      w7 - w8 >= 0
 s2_8#416:      w8 - w9 >= 0
 s2_9#417:      w9 - w10 >= 0
 s2_10#418:     w10 - w11 >= 0
Bounds
 0 <= x0,0 <= 1
 0 <= x0,1 <= 1
 0 <= x0,2 <= 1
 0 <= x0,3 <= 1
 0 <= x0,4 <= 1
 0 <= x0,5 <= 1
 0 <= x0,6 <= 1
 0 <= x0,7 <= 1
 0 <= x0,8 <= 1
 0 <= x0,9 <= 1
 0 <= x0,10 <= 1
 0 <= x0,11 <= 1
 0 <= x1,0 <= 1
 0 <= x1,1 <= 1
 0 <= x1,2 <= 1
 0 <= x1,3 <= 1
 0 <= x1,4 <= 1
 0 <= x1,5 <= 1
 0 <= x1,6 <= 1
 0 <= x1,7 <= 1
 0 <= x1,8 <= 1
 0 <= x1,9 <= 1
 0 <= x1,10 <= 1
 0 <= x1,11 <= 1
 0 <= x2,0 <= 1
 0 <= x2,1 <= 1
 0 <= x2,2 <= 1
 0 <= x2,3 <= 1
 0 <= x2,4 <= 1
 0 <= x2,5 <= 1
 0 <= x2,6 <= 1
 0 <= x2,7 <= 1
 0 <= x2,8 <= 1
 0 <= x2,9 <= 1
 0 <= x2,10 <= 1
 0 <= x2,11 <= 1
 0 <= x3,0 <= 1
 0 <= x3,1 <= 1
 0 <= x3,2 <= 1
 0 <= x3,3 <= 1
 0 <= x3,4 <= 1
 0 <= x3,5 <= 1
 0 <= x3,6 <= 1
 0 <= x3,7 <= 1
 0 <= x3,8 <= 1
 0 <= x3,9 <= 1
 0 <= x3,10 <= 1
 0 <= x3,11 <= 1
 0 <= x4,0 <= 1
 0 <= x4,1 <= 1
 0 <= x4,2 <= 1
 0 <= x4,3 <= 1
 0 <= x4,4 <= 1
 0 <= x4,5 <= 1
 0 <= x4,6 <= 1
 0 <= x4,7 <= 1
 0 <= x4,8 <= 1
 0 <= x4,9 <= 1
 0 <= x4,10 <= 1
 0 <= x4,11 <= 1
 0 <= x5,0 <= 1
 0 <= x5,1 <= 1
 0 <= x5,2 <= 1
 0 <= x5,3 <= 1
 0 <= x5,4 <= 1
 0 <= x5,5 <= 1
 0 <= x5,6 <= 1
 0 <= x5,7 <= 1
 0 <= x5,8 <= 1
 0 <= x5,9 <= 1
 0 <= x5,10 <= 1
 0 <= x5,11 <= 1
 0 <= x6,0 <= 1
 0 <= x6,1 <= 1
 0 <= x6,2 <= 1
 0 <= x6,3 <= 1
 0 <= x6,4 <= 1
 0 <= x6,5 <= 1
 0 <= x6,6 <= 1
 0 <= x6,7 <= 1
 0 <= x6,8 <= 1
 0 <= x6,9 <= 1
 0 <= x6,10 <= 1
 0 <= x6,11 <= 1
 0 <= x7,0 <= 1
 0 <= x7,1 <= 1
 0 <= x7,2 <= 1
 0 <= x7,3 <= 1
 0 <= x7,4 <= 1
 0 <= x7,5 <= 1
 0 <= x7,6 <= 1
 0 <= x7,7 <= 1
 0 <= x7,8 <= 1
 0 <= x7,9 <= 1
 0 <= x7,10 <= 1
 0 <= x7,11 <= 1
 0 <= x8,0 <= 1
 0 <= x8,1 <= 1
 0 <= x8,2 <= 1
 0 <= x8,3 <= 1
 0 <= x8,4 <= 1
 0 <= x8,5 <= 1
 0 <= x8,6 <= 1
 0 <= x8,7 <= 1
 0 <= x8,8 <= 1
 0 <= x8,9 <= 1
 0 <= x8,10 <= 1
 0 <= x8,11 <= 1
 0 <= x9,0 <= 1
 0 <= x9,1 <= 1
 0 <= x9,2 <= 1
 0 <= x9,3 <= 1
 0 <= x9,4 <= 1
 0 <= x9,5 <= 1
 0 <= x9,6 <= 1
 0 <= x9,7 <= 1
 0 <= x9,8 <= 1
 0 <= x9,9 <= 1
 0 <= x9,10 <= 1
 0 <= x9,11 <= 1
 0 <= x10,0 <= 1
 0 <= x10,1 <= 1
 0 <= x10,2 <= 1
 0 <= x10,3 <= 1
 0 <= x10,4 <= 1
 0 <= x10,5 <= 1
 0 <= x10,6 <= 1
 0 <= x10,7 <= 1
 0 <= x10,8 <= 1
 0 <= x10,9 <= 1
 0 <= x10,10 <= 1
 0 <= x10,11 <= 1
 0 <= x11,0 <= 1
 0 <= x11,1 <= 1
 0 <= x11,2 <= 1
 0 <= x11,3 <= 1
 0 <= x11,4 <= 1
 0 <= x11,5 <= 1
 0 <= x11,6 <= 1
 0 <= x11,7 <= 1
 0 <= x11,8 <= 1
 0 <= x11,9 <= 1
 0 <= x11,10 <= 1
 0 <= x11,11 <= 1
 0 <= w0 <= 1
 0 <= w1 <= 1
 0 <= w2 <= 1
 0 <= w3 <= 1
 0 <= w4 <= 1
 0 <= w5 <= 1
 0 <= w6 <= 1
 0 <= w7 <= 1
 0 <= w8 <= 1
 0 <= w9 <= 1
 0 <= w10 <= 1
 0 <= w11 <= 1
Binaries
 x0,0  x0,1  x0,2  x0,3  x0,4  x0,5  x0,6  x0,7  x0,8  x0,9  x0,10  x0,11 
 x1,0  x1,1  x1,2  x1,3  x1,4  x1,5  x1,6  x1,7  x1,8  x1,9  x1,10  x1,11 
 x2,0  x2,1  x2,2  x2,3  x2,4  x2,5  x2,6  x2,7  x2,8  x2,9  x2,10  x2,11 
 x3,0  x3,1  x3,2  x3,3  x3,4  x3,5  x3,6  x3,7  x3,8  x3,9  x3,10  x3,11 
 x4,0  x4,1  x4,2  x4,3  x4,4  x4,5  x4,6  x4,7  x4,8  x4,9  x4,10  x4,11 
 x5,0  x5,1  x5,2  x5,3  x5,4  x5,5  x5,6  x5,7  x5,8  x5,9  x5,10  x5,11 
 x6,0  x6,1  x6,2  x6,3  x6,4  x6,5  x6,6  x6,7  x6,8  x6,9  x6,10  x6,11 
 x7,0  x7,1  x7,2  x7,3  x7,4  x7,5  x7,6  x7,7  x7,8  x7,9  x7,10  x7,11 
 x8,0  x8,1  x8,2  x8,3  x8,4  x8,5  x8,6  x8,7  x8,8  x8,9  x8,10  x8,11 
 x9,0  x9,1  x9,2  x9,3  x9,4  x9,5  x9,6  x9,7  x9,8  x9,9  x9,10  x9,11 
 x10,0  x10,1  x10,2  x10,3  x10,4  x10,5  x10,6  x10,7  x10,8  x10,9  x10,10 
 x10,11  x11,0  x11,1  x11,2  x11,3  x11,4  x11,5  x11,6  x11,7  x11,8  x11,9 
 x11,10  x11,11  w0  w1  w2  w3  w4  w5  w6  w7  w8  w9  w10  w11 
End
